generated by phonopy
   1.0
     9.9597963899999975   -0.0000000600000000    0.0000000000000000
    -4.9799028300000003    8.6254395000000006    0.0000000000000000
     0.0000000000000000    0.0000000000000000   27.4743746000000009
W Se
  36   72
Direct
  0.2222223333333333  0.1111110000000000  0.3750000000000000
  0.5555556666666666  0.1111110000000000  0.3750000000000000
  0.8888889999999999  0.1111110000000000  0.3750000000000000
  0.2222223333333333  0.4444443333333333  0.3750000000000000
  0.5555556666666666  0.4444443333333333  0.3750000000000000
  0.8888889999999999  0.4444443333333333  0.3750000000000000
  0.2222223333333333  0.7777776666666667  0.3750000000000000
  0.5555556666666666  0.7777776666666667  0.3750000000000000
  0.8888889999999999  0.7777776666666667  0.3750000000000000
  0.2222223333333333  0.1111110000000000  0.8750000000000000
  0.5555556666666666  0.1111110000000000  0.8750000000000000
  0.8888889999999999  0.1111110000000000  0.8750000000000000
  0.2222223333333333  0.4444443333333333  0.8750000000000000
  0.5555556666666666  0.4444443333333333  0.8750000000000000
  0.8888889999999999  0.4444443333333333  0.8750000000000000
  0.2222223333333333  0.7777776666666667  0.8750000000000000
  0.5555556666666666  0.7777776666666667  0.8750000000000000
  0.8888889999999999  0.7777776666666667  0.8750000000000000
  0.1111110000000000  0.2222223333333333  0.1250000000000000
  0.4444443333333333  0.2222223333333333  0.1250000000000000
  0.7777776666666667  0.2222223333333333  0.1250000000000000
  0.1111110000000000  0.5555556666666666  0.1250000000000000
  0.4444443333333333  0.5555556666666666  0.1250000000000000
  0.7777776666666667  0.5555556666666666  0.1250000000000000
  0.1111110000000000  0.8888889999999999  0.1250000000000000
  0.4444443333333333  0.8888889999999999  0.1250000000000000
  0.7777776666666667  0.8888889999999999  0.1250000000000000
  0.1111110000000000  0.2222223333333333  0.6250000000000000
  0.4444443333333333  0.2222223333333333  0.6250000000000000
  0.7777776666666667  0.2222223333333333  0.6250000000000000
  0.1111110000000000  0.5555556666666666  0.6250000000000000
  0.4444443333333333  0.5555556666666666  0.6250000000000000
  0.7777776666666667  0.5555556666666666  0.6250000000000000
  0.1111110000000000  0.8888889999999999  0.6250000000000000
  0.4444443333333333  0.8888889999999999  0.6250000000000000
  0.7777776666666667  0.8888889999999999  0.6250000000000000
  0.1111110000000000  0.2222223333333333  0.4355003950000000
  0.4444443333333333  0.2222223333333333  0.4355003950000000
  0.7777776666666667  0.2222223333333333  0.4355003950000000
  0.1111110000000000  0.5555556666666666  0.4355003950000000
  0.4444443333333333  0.5555556666666666  0.4355003950000000
  0.7777776666666667  0.5555556666666666  0.4355003950000000
  0.1111110000000000  0.8888889999999999  0.4355003950000000
  0.4444443333333333  0.8888889999999999  0.4355003950000000
  0.7777776666666667  0.8888889999999999  0.4355003950000000
  0.1111110000000000  0.2222223333333333  0.9355003950000000
  0.4444443333333333  0.2222223333333333  0.9355003950000000
  0.7777776666666667  0.2222223333333333  0.9355003950000000
  0.1111110000000000  0.5555556666666666  0.9355003950000000
  0.4444443333333333  0.5555556666666666  0.9355003950000000
  0.7777776666666667  0.5555556666666666  0.9355003950000000
  0.1111110000000000  0.8888889999999999  0.9355003950000000
  0.4444443333333333  0.8888889999999999  0.9355003950000000
  0.7777776666666667  0.8888889999999999  0.9355003950000000
  0.2222223333333333  0.1111110000000000  0.1855003950000000
  0.5555556666666666  0.1111110000000000  0.1855003950000000
  0.8888889999999999  0.1111110000000000  0.1855003950000000
  0.2222223333333333  0.4444443333333333  0.1855003950000000
  0.5555556666666666  0.4444443333333333  0.1855003950000000
  0.8888889999999999  0.4444443333333333  0.1855003950000000
  0.2222223333333333  0.7777776666666667  0.1855003950000000
  0.5555556666666666  0.7777776666666667  0.1855003950000000
  0.8888889999999999  0.7777776666666667  0.1855003950000000
  0.2222223333333333  0.1111110000000000  0.6855003950000000
  0.5555556666666666  0.1111110000000000  0.6855003950000000
  0.8888889999999999  0.1111110000000000  0.6855003950000000
  0.2222223333333333  0.4444443333333333  0.6855003950000000
  0.5555556666666666  0.4444443333333333  0.6855003950000000
  0.8888889999999999  0.4444443333333333  0.6855003950000000
  0.2222223333333333  0.7777776666666667  0.6855003950000000
  0.5555556666666666  0.7777776666666667  0.6855003950000000
  0.8888889999999999  0.7777776666666667  0.6855003950000000
  0.1111110000000000  0.2222223333333333  0.3144996050000000
  0.4444443333333333  0.2222223333333333  0.3144996050000000
  0.7777776666666667  0.2222223333333333  0.3144996050000000
  0.1111110000000000  0.5555556666666666  0.3144996050000000
  0.4444443333333333  0.5555556666666666  0.3144996050000000
  0.7777776666666667  0.5555556666666666  0.3144996050000000
  0.1111110000000000  0.8888889999999999  0.3144996050000000
  0.4444443333333333  0.8888889999999999  0.3144996050000000
  0.7777776666666667  0.8888889999999999  0.3144996050000000
  0.1111110000000000  0.2222223333333333  0.8144996050000000
  0.4444443333333333  0.2222223333333333  0.8144996050000000
  0.7777776666666667  0.2222223333333333  0.8144996050000000
  0.1111110000000000  0.5555556666666666  0.8144996050000000
  0.4444443333333333  0.5555556666666666  0.8144996050000000
  0.7777776666666667  0.5555556666666666  0.8144996050000000
  0.1111110000000000  0.8888889999999999  0.8144996050000000
  0.4444443333333333  0.8888889999999999  0.8144996050000000
  0.7777776666666667  0.8888889999999999  0.8144996050000000
  0.2222223333333333  0.1111110000000000  0.0644996050000000
  0.5555556666666666  0.1111110000000000  0.0644996050000000
  0.8888889999999999  0.1111110000000000  0.0644996050000000
  0.2222223333333333  0.4444443333333333  0.0644996050000000
  0.5555556666666666  0.4444443333333333  0.0644996050000000
  0.8888889999999999  0.4444443333333333  0.0644996050000000
  0.2222223333333333  0.7777776666666667  0.0644996050000000
  0.5555556666666666  0.7777776666666667  0.0644996050000000
  0.8888889999999999  0.7777776666666667  0.0644996050000000
  0.2222223333333333  0.1111110000000000  0.5644996050000000
  0.5555556666666666  0.1111110000000000  0.5644996050000000
  0.8888889999999999  0.1111110000000000  0.5644996050000000
  0.2222223333333333  0.4444443333333333  0.5644996050000000
  0.5555556666666666  0.4444443333333333  0.5644996050000000
  0.8888889999999999  0.4444443333333333  0.5644996050000000
  0.2222223333333333  0.7777776666666667  0.5644996050000000
  0.5555556666666666  0.7777776666666667  0.5644996050000000
  0.8888889999999999  0.7777776666666667  0.5644996050000000
