Na Zr P  O
 1.0000000000000000
     4.4717677524642161    2.5817763592933729    7.6566938198142500
    -4.4717677619339282    2.5817763730875947    7.6566938204996227
     0.0000000072112954   -5.1635525964473326    7.6566937747436583
 Na  Zr  P   O
   2   4   6  24
Cartesian
  0.0000000445601894  0.0000000682228239 -0.0000000672808946
  0.0000000167289685  0.0000000492906719 11.4850408882929429
 -0.0000000378506488 -0.0000001555331085  8.1501403350449291
  0.0000001184116692  0.0000001558505405  3.3349002145266993
 -0.0000000662415082  0.0000001341672837 19.6351814425798636
  0.0000001414621424  0.0000000187640150 14.8199408434986371
 -1.3045415507042539  2.9040237830102376  9.5708671374903815
 -1.8626875882205931 -2.5817780429971307  9.5708670164559049
  1.3045418386589163 -2.9040185859102383 13.3992130355340642
  1.8626830954562792  2.5817756997363595 13.3992132465513212
  3.1672291262011862 -0.3222456925627483  9.5708669091520964
 -3.1672246845594580  0.3222431022502277 13.3992125296807352
 -1.6289104602456739  0.1769179391073546 13.4617076046334354
  0.6612398004169409 -1.4991366269522362 13.4617072944693419
  0.9676707041988631  1.3222189263474038 13.4617078302878195
 -3.8105284726438362 -1.0826401540811934 13.3367209366466106
  2.8428582275753316 -2.7586942193705992 13.3367206054222578
  0.9676702322645500  3.8413344957237645 13.3367206575263069
  1.6289071086617652 -0.1769173597462210  9.5083732434126880
 -0.6612385285650444  1.4991338154177647  9.5083735124641375
 -0.9676686246670705 -1.3222159881538631  9.5083734385994063
  3.8105283325083366  1.0826408555272891  9.6333607475625822
 -2.8428586225032464  2.7586941693038498  9.6333607778575079
 -0.9676696785897019 -3.8413348561665708  9.6333608198693987
  2.7468077357562537  2.4793051392695231 12.1375977262545067
  0.7737373673226927 -3.6184578568148473 12.1375975323956471
 -3.5205449285947519  1.1391528753349960 12.1375978950095842
 -1.7249592556713114  0.1024713101182354  7.0041381947090686
  0.9512223533225651  1.4426228279175708  7.0041383520903420
  0.7737368123109880 -1.5450939606696719  7.0041382388619331
 -2.7468067608508973 -2.4793049079710050 10.8324834882065311
 -0.7737378233583007  3.6184571331988682 10.8324835394233929
  3.5205445612141064 -1.1391520610992640 10.8324834368258109
  1.7249611907241407 -0.1024709092156111 15.9659452781939510
 -0.9512230845984668 -1.4426245386611083 15.9659450196277870
 -0.7737379956334466  1.5450960208278921 15.9659452602986498
