generated by phonopy
   1.0
    13.4153032573926474    7.7453290778801183   22.9700814594427491
   -13.4153032858017838    7.7453291192627844   22.9700814614988680
     0.0000000216338862  -15.4906577893419986   22.9700813242309749
Na Zr P O
  54  108  162  648
Direct
  0.0000000021524839  0.9999999988308897  0.9999999960875599
  0.3333333354858172  0.9999999988308899  0.9999999960875599
  0.6666666688191506  0.9999999988308899  0.9999999960875599
  0.0000000021524839  0.3333333321642232  0.9999999960875600
  0.3333333354858171  0.3333333321642232  0.9999999960875599
  0.6666666688191505  0.3333333321642233  0.9999999960875599
  0.0000000021524837  0.6666666654975564  0.9999999960875599
  0.3333333354858171  0.6666666654975564  0.9999999960875599
  0.6666666688191505  0.6666666654975565  0.9999999960875599
  0.0000000021524839  0.9999999988308897  0.3333333294208932
  0.3333333354858171  0.9999999988308899  0.3333333294208932
  0.6666666688191505  0.9999999988308899  0.3333333294208931
  0.0000000021524839  0.3333333321642231  0.3333333294208932
  0.3333333354858171  0.3333333321642232  0.3333333294208932
  0.6666666688191505  0.3333333321642233  0.3333333294208932
  0.0000000021524838  0.6666666654975564  0.3333333294208932
  0.3333333354858172  0.6666666654975565  0.3333333294208932
  0.6666666688191504  0.6666666654975565  0.3333333294208932
  0.0000000021524840  0.9999999988308897  0.6666666627542265
  0.3333333354858172  0.9999999988308899  0.6666666627542265
  0.6666666688191506  0.9999999988308899  0.6666666627542265
  0.0000000021524839  0.3333333321642231  0.6666666627542266
  0.3333333354858172  0.3333333321642232  0.6666666627542265
  0.6666666688191506  0.3333333321642233  0.6666666627542265
  0.0000000021524839  0.6666666654975565  0.6666666627542265
  0.3333333354858172  0.6666666654975564  0.6666666627542265
  0.6666666688191505  0.6666666654975566  0.6666666627542265
  0.1666666695535595  0.1666666682223801  0.1666666700936092
  0.5000000028868928  0.1666666682223802  0.1666666700936092
  0.8333333362202260  0.1666666682223802  0.1666666700936092
  0.1666666695535595  0.5000000015557133  0.1666666700936092
  0.5000000028868928  0.5000000015557133  0.1666666700936092
  0.8333333362202260  0.5000000015557134  0.1666666700936092
  0.1666666695535595  0.8333333348890468  0.1666666700936092
  0.5000000028868929  0.8333333348890468  0.1666666700936092
  0.8333333362202261  0.8333333348890469  0.1666666700936092
  0.1666666695535596  0.1666666682223801  0.5000000034269426
  0.5000000028868928  0.1666666682223802  0.5000000034269426
  0.8333333362202261  0.1666666682223801  0.5000000034269426
  0.1666666695535596  0.5000000015557132  0.5000000034269425
  0.5000000028868929  0.5000000015557133  0.5000000034269426
  0.8333333362202261  0.5000000015557133  0.5000000034269425
  0.1666666695535596  0.8333333348890467  0.5000000034269426
  0.5000000028868929  0.8333333348890468  0.5000000034269426
  0.8333333362202262  0.8333333348890469  0.5000000034269426
  0.1666666695535596  0.1666666682223801  0.8333333367602760
  0.5000000028868929  0.1666666682223802  0.8333333367602760
  0.8333333362202260  0.1666666682223801  0.8333333367602760
  0.1666666695535596  0.5000000015557133  0.8333333367602759
  0.5000000028868929  0.5000000015557133  0.8333333367602760
  0.8333333362202262  0.5000000015557133  0.8333333367602759
  0.1666666695535597  0.8333333348890468  0.8333333367602760
  0.5000000028868929  0.8333333348890468  0.8333333367602760
  0.8333333362202263  0.8333333348890469  0.8333333367602760
  0.1182718190454166  0.1182718218071378  0.1182718335802999
  0.4516051523787499  0.1182718218071379  0.1182718335803000
  0.7849384857120832  0.1182718218071379  0.1182718335803000
  0.1182718190454167  0.4516051551404712  0.1182718335802999
  0.4516051523787500  0.4516051551404713  0.1182718335803000
  0.7849384857120834  0.4516051551404712  0.1182718335803000
  0.1182718190454167  0.7849384884738044  0.1182718335803000
  0.4516051523787499  0.7849384884738045  0.1182718335802999
  0.7849384857120835  0.7849384884738047  0.1182718335803001
  0.1182718190454166  0.1182718218071378  0.4516051669136333
  0.4516051523787499  0.1182718218071379  0.4516051669136333
  0.7849384857120834  0.1182718218071379  0.4516051669136333
  0.1182718190454167  0.4516051551404711  0.4516051669136333
  0.4516051523787499  0.4516051551404712  0.4516051669136333
  0.7849384857120834  0.4516051551404712  0.4516051669136333
  0.1182718190454167  0.7849384884738044  0.4516051669136333
  0.4516051523787499  0.7849384884738045  0.4516051669136332
  0.7849384857120834  0.7849384884738047  0.4516051669136334
  0.1182718190454166  0.1182718218071378  0.7849385002469667
  0.4516051523787499  0.1182718218071379  0.7849385002469667
  0.7849384857120834  0.1182718218071379  0.7849385002469665
  0.1182718190454168  0.4516051551404712  0.7849385002469667
  0.4516051523787500  0.4516051551404712  0.7849385002469667
  0.7849384857120835  0.4516051551404713  0.7849385002469667
  0.1182718190454167  0.7849384884738044  0.7849385002469667
  0.4516051523787500  0.7849384884738045  0.7849385002469665
  0.7849384857120835  0.7849384884738047  0.7849385002469668
  0.0483948469179973  0.0483948380669446  0.0483948337055568
  0.3817281802513307  0.0483948380669447  0.0483948337055569
  0.7150615135846639  0.0483948380669447  0.0483948337055569
  0.0483948469179974  0.3817281714002779  0.0483948337055568
  0.3817281802513306  0.3817281714002779  0.0483948337055568
  0.7150615135846639  0.3817281714002780  0.0483948337055569
  0.0483948469179974  0.7150615047336113  0.0483948337055569
  0.3817281802513307  0.7150615047336113  0.0483948337055569
  0.7150615135846640  0.7150615047336114  0.0483948337055569
  0.0483948469179973  0.0483948380669446  0.3817281670388902
  0.3817281802513306  0.0483948380669447  0.3817281670388902
  0.7150615135846639  0.0483948380669447  0.3817281670388902
  0.0483948469179973  0.3817281714002779  0.3817281670388901
  0.3817281802513307  0.3817281714002779  0.3817281670388901
  0.7150615135846639  0.3817281714002780  0.3817281670388902
  0.0483948469179974  0.7150615047336113  0.3817281670388902
  0.3817281802513307  0.7150615047336113  0.3817281670388902
  0.7150615135846640  0.7150615047336113  0.3817281670388903
  0.0483948469179973  0.0483948380669446  0.7150615003722234
  0.3817281802513307  0.0483948380669446  0.7150615003722235
  0.7150615135846639  0.0483948380669446  0.7150615003722235
  0.0483948469179973  0.3817281714002778  0.7150615003722234
  0.3817281802513306  0.3817281714002778  0.7150615003722234
  0.7150615135846639  0.3817281714002779  0.7150615003722234
  0.0483948469179974  0.7150615047336112  0.7150615003722235
  0.3817281802513307  0.7150615047336112  0.7150615003722234
  0.7150615135846639  0.7150615047336113  0.7150615003722235
  0.2849384952720992  0.2849385000659513  0.2849384965090290
  0.6182718286054325  0.2849385000659514  0.2849384965090290
  0.9516051619387659  0.2849385000659515  0.2849384965090291
  0.2849384952720994  0.6182718333992846  0.2849384965090290
  0.6182718286054325  0.6182718333992847  0.2849384965090290
  0.9516051619387658  0.6182718333992848  0.2849384965090290
  0.2849384952720994  0.9516051667326177  0.2849384965090290
  0.6182718286054325  0.9516051667326180  0.2849384965090290
  0.9516051619387660  0.9516051667326182  0.2849384965090290
  0.2849384952720993  0.2849385000659513  0.6182718298423624
  0.6182718286054326  0.2849385000659514  0.6182718298423625
  0.9516051619387659  0.2849385000659515  0.6182718298423625
  0.2849384952720993  0.6182718333992846  0.6182718298423625
  0.6182718286054325  0.6182718333992847  0.6182718298423624
  0.9516051619387659  0.6182718333992847  0.6182718298423624
  0.2849384952720994  0.9516051667326180  0.6182718298423624
  0.6182718286054326  0.9516051667326180  0.6182718298423624
  0.9516051619387660  0.9516051667326181  0.6182718298423624
  0.2849384952720994  0.2849385000659513  0.9516051631756957
  0.6182718286054325  0.2849385000659512  0.9516051631756957
  0.9516051619387659  0.2849385000659514  0.9516051631756957
  0.2849384952720993  0.6182718333992845  0.9516051631756957
  0.6182718286054324  0.6182718333992846  0.9516051631756957
  0.9516051619387659  0.6182718333992846  0.9516051631756955
  0.2849384952720992  0.9516051667326179  0.9516051631756955
  0.6182718286054326  0.9516051667326180  0.9516051631756957
  0.9516051619387660  0.9516051667326180  0.9516051631756957
  0.2150615089334654  0.2150614982800172  0.2150615080570533
  0.5483948422667987  0.2150614982800172  0.2150615080570533
  0.8817281756001321  0.2150614982800174  0.2150615080570535
  0.2150615089334654  0.5483948316133505  0.2150615080570533
  0.5483948422667987  0.5483948316133506  0.2150615080570534
  0.8817281756001321  0.5483948316133505  0.2150615080570534
  0.2150615089334654  0.8817281649466838  0.2150615080570533
  0.5483948422667988  0.8817281649466838  0.2150615080570533
  0.8817281756001321  0.8817281649466839  0.2150615080570534
  0.2150615089334654  0.2150614982800172  0.5483948413903865
  0.5483948422667988  0.2150614982800173  0.5483948413903865
  0.8817281756001321  0.2150614982800174  0.5483948413903866
  0.2150615089334654  0.5483948316133505  0.5483948413903865
  0.5483948422667987  0.5483948316133506  0.5483948413903865
  0.8817281756001321  0.5483948316133506  0.5483948413903866
  0.2150615089334655  0.8817281649466839  0.5483948413903865
  0.5483948422667987  0.8817281649466837  0.5483948413903865
  0.8817281756001321  0.8817281649466838  0.5483948413903865
  0.2150615089334654  0.2150614982800172  0.8817281747237200
  0.5483948422667988  0.2150614982800172  0.8817281747237199
  0.8817281756001323  0.2150614982800175  0.8817281747237201
  0.2150615089334654  0.5483948316133503  0.8817281747237199
  0.5483948422667988  0.5483948316133505  0.8817281747237200
  0.8817281756001321  0.5483948316133506  0.8817281747237200
  0.2150615089334655  0.8817281649466837  0.8817281747237200
  0.5483948422667988  0.8817281649466838  0.8817281747237200
  0.8817281756001322  0.8817281649466839  0.8817281747237200
  0.1527572775353751  0.2500000695075952  0.0139093137068362
  0.4860906108687084  0.2500000695075952  0.0139093137068363
  0.8194239442020417  0.2500000695075953  0.0139093137068363
  0.1527572775353751  0.5833334028409284  0.0139093137068362
  0.4860906108687084  0.5833334028409285  0.0139093137068363
  0.8194239442020418  0.5833334028409286  0.0139093137068363
  0.1527572775353752  0.9166667361742618  0.0139093137068363
  0.4860906108687085  0.9166667361742620  0.0139093137068363
  0.8194239442020418  0.9166667361742620  0.0139093137068365
  0.1527572775353752  0.2500000695075952  0.3472426470401696
  0.4860906108687084  0.2500000695075953  0.3472426470401696
  0.8194239442020418  0.2500000695075954  0.3472426470401697
  0.1527572775353751  0.5833334028409285  0.3472426470401695
  0.4860906108687085  0.5833334028409285  0.3472426470401696
  0.8194239442020417  0.5833334028409286  0.3472426470401695
  0.1527572775353752  0.9166667361742618  0.3472426470401696
  0.4860906108687084  0.9166667361742619  0.3472426470401695
  0.8194239442020417  0.9166667361742619  0.3472426470401697
  0.1527572775353751  0.2500000695075952  0.6805759803735030
  0.4860906108687085  0.2500000695075952  0.6805759803735031
  0.8194239442020417  0.2500000695075953  0.6805759803735032
  0.1527572775353752  0.5833334028409284  0.6805759803735030
  0.4860906108687084  0.5833334028409285  0.6805759803735030
  0.8194239442020417  0.5833334028409285  0.6805759803735031
  0.1527572775353752  0.9166667361742618  0.6805759803735031
  0.4860906108687085  0.9166667361742619  0.6805759803735031
  0.8194239442020419  0.9166667361742620  0.6805759803735032
  0.0139093080350781  0.1527572754310376  0.2500000734129042
  0.3472426413684115  0.1527572754310377  0.2500000734129043
  0.6805759747017448  0.1527572754310378  0.2500000734129043
  0.0139093080350782  0.4860906087643709  0.2500000734129043
  0.3472426413684114  0.4860906087643709  0.2500000734129043
  0.6805759747017448  0.4860906087643709  0.2500000734129042
  0.0139093080350782  0.8194239420977042  0.2500000734129042
  0.3472426413684114  0.8194239420977043  0.2500000734129042
  0.6805759747017449  0.8194239420977042  0.2500000734129043
  0.0139093080350782  0.1527572754310376  0.5833334067462375
  0.3472426413684114  0.1527572754310377  0.5833334067462375
  0.6805759747017448  0.1527572754310377  0.5833334067462375
  0.0139093080350782  0.4860906087643709  0.5833334067462376
  0.3472426413684114  0.4860906087643709  0.5833334067462375
  0.6805759747017448  0.4860906087643710  0.5833334067462376
  0.0139093080350782  0.8194239420977042  0.5833334067462375
  0.3472426413684115  0.8194239420977043  0.5833334067462375
  0.6805759747017448  0.8194239420977043  0.5833334067462376
  0.0139093080350782  0.1527572754310377  0.9166667400795707
  0.3472426413684115  0.1527572754310378  0.9166667400795709
  0.6805759747017449  0.1527572754310378  0.9166667400795709
  0.0139093080350782  0.4860906087643708  0.9166667400795709
  0.3472426413684114  0.4860906087643708  0.9166667400795709
  0.6805759747017448  0.4860906087643710  0.9166667400795709
  0.0139093080350782  0.8194239420977041  0.9166667400795708
  0.3472426413684115  0.8194239420977042  0.9166667400795709
  0.6805759747017449  0.8194239420977043  0.9166667400795709
  0.1805761574984543  0.0833333438932468  0.3194237837867157
  0.5139094908317876  0.0833333438932468  0.3194237837867157
  0.8472428241651209  0.0833333438932469  0.3194237837867157
  0.1805761574984542  0.4166666772265800  0.3194237837867155
  0.5139094908317876  0.4166666772265801  0.3194237837867157
  0.8472428241651210  0.4166666772265802  0.3194237837867157
  0.1805761574984544  0.7500000105599134  0.3194237837867157
  0.5139094908317877  0.7500000105599134  0.3194237837867157
  0.8472428241651210  0.7500000105599135  0.3194237837867156
  0.1805761574984543  0.0833333438932468  0.6527571171200490
  0.5139094908317876  0.0833333438932468  0.6527571171200490
  0.8472428241651209  0.0833333438932469  0.6527571171200490
  0.1805761574984543  0.4166666772265799  0.6527571171200489
  0.5139094908317877  0.4166666772265800  0.6527571171200490
  0.8472428241651211  0.4166666772265801  0.6527571171200490
  0.1805761574984543  0.7500000105599134  0.6527571171200490
  0.5139094908317878  0.7500000105599134  0.6527571171200491
  0.8472428241651209  0.7500000105599134  0.6527571171200489
  0.1805761574984543  0.0833333438932468  0.9860904504533823
  0.5139094908317876  0.0833333438932467  0.9860904504533823
  0.8472428241651209  0.0833333438932469  0.9860904504533825
  0.1805761574984543  0.4166666772265799  0.9860904504533824
  0.5139094908317876  0.4166666772265800  0.9860904504533825
  0.8472428241651211  0.4166666772265801  0.9860904504533825
  0.1805761574984544  0.7500000105599134  0.9860904504533824
  0.5139094908317877  0.7500000105599134  0.9860904504533825
  0.8472428241651209  0.7500000105599133  0.9860904504533823
  0.3194237878669110  0.1805761552010587  0.0833333498986260
  0.6527571212002443  0.1805761552010587  0.0833333498986260
  0.9860904545335776  0.1805761552010588  0.0833333498986260
  0.3194237878669111  0.5139094885343920  0.0833333498986260
  0.6527571212002443  0.5139094885343921  0.0833333498986261
  0.9860904545335776  0.5139094885343921  0.0833333498986261
  0.3194237878669111  0.8472428218677253  0.0833333498986260
  0.6527571212002444  0.8472428218677254  0.0833333498986261
  0.9860904545335776  0.8472428218677255  0.0833333498986260
  0.3194237878669111  0.1805761552010587  0.4166666832319594
  0.6527571212002443  0.1805761552010588  0.4166666832319594
  0.9860904545335776  0.1805761552010587  0.4166666832319593
  0.3194237878669110  0.5139094885343920  0.4166666832319594
  0.6527571212002442  0.5139094885343920  0.4166666832319594
  0.9860904545335776  0.5139094885343921  0.4166666832319594
  0.3194237878669110  0.8472428218677253  0.4166666832319594
  0.6527571212002443  0.8472428218677254  0.4166666832319594
  0.9860904545335776  0.8472428218677253  0.4166666832319595
  0.3194237878669111  0.1805761552010587  0.7500000165652927
  0.6527571212002443  0.1805761552010587  0.7500000165652928
  0.9860904545335776  0.1805761552010587  0.7500000165652927
  0.3194237878669110  0.5139094885343919  0.7500000165652927
  0.6527571212002443  0.5139094885343919  0.7500000165652928
  0.9860904545335776  0.5139094885343921  0.7500000165652928
  0.3194237878669111  0.8472428218677251  0.7500000165652928
  0.6527571212002443  0.8472428218677254  0.7500000165652928
  0.9860904545335776  0.8472428218677253  0.7500000165652928
  0.2500000678507284  0.0139093092205597  0.1527572745762880
  0.5833334011840617  0.0139093092205599  0.1527572745762880
  0.9166667345173951  0.0139093092205599  0.1527572745762880
  0.2500000678507284  0.3472426425538930  0.1527572745762880
  0.5833334011840617  0.3472426425538931  0.1527572745762880
  0.9166667345173951  0.3472426425538931  0.1527572745762880
  0.2500000678507284  0.6805759758872264  0.1527572745762880
  0.5833334011840617  0.6805759758872265  0.1527572745762881
  0.9166667345173951  0.6805759758872266  0.1527572745762880
  0.2500000678507284  0.0139093092205598  0.4860906079096213
  0.5833334011840617  0.0139093092205598  0.4860906079096213
  0.9166667345173951  0.0139093092205599  0.4860906079096214
  0.2500000678507284  0.3472426425538930  0.4860906079096213
  0.5833334011840617  0.3472426425538931  0.4860906079096213
  0.9166667345173951  0.3472426425538931  0.4860906079096214
  0.2500000678507284  0.6805759758872264  0.4860906079096213
  0.5833334011840617  0.6805759758872264  0.4860906079096213
  0.9166667345173951  0.6805759758872265  0.4860906079096213
  0.2500000678507284  0.0139093092205597  0.8194239412429545
  0.5833334011840616  0.0139093092205598  0.8194239412429545
  0.9166667345173951  0.0139093092205599  0.8194239412429545
  0.2500000678507285  0.3472426425538930  0.8194239412429545
  0.5833334011840619  0.3472426425538931  0.8194239412429546
  0.9166667345173951  0.3472426425538931  0.8194239412429547
  0.2500000678507284  0.6805759758872264  0.8194239412429546
  0.5833334011840619  0.6805759758872265  0.8194239412429546
  0.9166667345173952  0.6805759758872265  0.8194239412429546
  0.0833333437680720  0.3194237711422079  0.1805761474074171
  0.4166666771014052  0.3194237711422079  0.1805761474074171
  0.7500000104347386  0.3194237711422080  0.1805761474074171
  0.0833333437680720  0.6527571044755411  0.1805761474074171
  0.4166666771014053  0.6527571044755411  0.1805761474074171
  0.7500000104347386  0.6527571044755411  0.1805761474074171
  0.0833333437680720  0.9860904378088744  0.1805761474074171
  0.4166666771014053  0.9860904378088745  0.1805761474074171
  0.7500000104347386  0.9860904378088746  0.1805761474074172
  0.0833333437680719  0.3194237711422078  0.5139094807407504
  0.4166666771014053  0.3194237711422079  0.5139094807407505
  0.7500000104347385  0.3194237711422080  0.5139094807407505
  0.0833333437680721  0.6527571044755411  0.5139094807407505
  0.4166666771014052  0.6527571044755410  0.5139094807407505
  0.7500000104347385  0.6527571044755411  0.5139094807407505
  0.0833333437680719  0.9860904378088744  0.5139094807407505
  0.4166666771014053  0.9860904378088745  0.5139094807407505
  0.7500000104347385  0.9860904378088746  0.5139094807407506
  0.0833333437680719  0.3194237711422078  0.8472428140740837
  0.4166666771014052  0.3194237711422079  0.8472428140740837
  0.7500000104347386  0.3194237711422079  0.8472428140740839
  0.0833333437680720  0.6527571044755411  0.8472428140740837
  0.4166666771014053  0.6527571044755410  0.8472428140740839
  0.7500000104347385  0.6527571044755411  0.8472428140740839
  0.0833333437680719  0.9860904378088744  0.8472428140740839
  0.4166666771014053  0.9860904378088744  0.8472428140740839
  0.7500000104347385  0.9860904378088745  0.8472428140740840
  0.1384473988356348  0.2598692128394944  0.1877373669862939
  0.4717807321689682  0.2598692128394945  0.1877373669862940
  0.8051140655023017  0.2598692128394945  0.1877373669862940
  0.1384473988356349  0.5932025461728279  0.1877373669862939
  0.4717807321689682  0.5932025461728279  0.1877373669862940
  0.8051140655023016  0.5932025461728279  0.1877373669862939
  0.1384473988356349  0.9265358795061612  0.1877373669862939
  0.4717807321689682  0.9265358795061611  0.1877373669862940
  0.8051140655023017  0.9265358795061611  0.1877373669862939
  0.1384473988356349  0.2598692128394944  0.5210707003196272
  0.4717807321689682  0.2598692128394945  0.5210707003196273
  0.8051140655023015  0.2598692128394944  0.5210707003196273
  0.1384473988356349  0.5932025461728279  0.5210707003196272
  0.4717807321689682  0.5932025461728279  0.5210707003196273
  0.8051140655023017  0.5932025461728280  0.5210707003196273
  0.1384473988356349  0.9265358795061612  0.5210707003196273
  0.4717807321689683  0.9265358795061611  0.5210707003196274
  0.8051140655023018  0.9265358795061613  0.5210707003196274
  0.1384473988356348  0.2598692128394944  0.8544040336529606
  0.4717807321689682  0.2598692128394945  0.8544040336529606
  0.8051140655023016  0.2598692128394944  0.8544040336529607
  0.1384473988356349  0.5932025461728279  0.8544040336529606
  0.4717807321689683  0.5932025461728279  0.8544040336529607
  0.8051140655023016  0.5932025461728279  0.8544040336529608
  0.1384473988356351  0.9265358795061611  0.8544040336529607
  0.4717807321689683  0.9265358795061611  0.8544040336529608
  0.8051140655023017  0.9265358795061613  0.8544040336529608
  0.1877373612957394  0.1384473984793008  0.2598692058188908
  0.5210706946290726  0.1384473984793009  0.2598692058188908
  0.8544040279624060  0.1384473984793010  0.2598692058188909
  0.1877373612957394  0.4717807318126341  0.2598692058188908
  0.5210706946290726  0.4717807318126341  0.2598692058188908
  0.8544040279624061  0.4717807318126342  0.2598692058188909
  0.1877373612957395  0.8051140651459674  0.2598692058188908
  0.5210706946290727  0.8051140651459675  0.2598692058188909
  0.8544040279624061  0.8051140651459676  0.2598692058188908
  0.1877373612957394  0.1384473984793008  0.5932025391522242
  0.5210706946290726  0.1384473984793008  0.5932025391522241
  0.8544040279624059  0.1384473984793009  0.5932025391522242
  0.1877373612957394  0.4717807318126340  0.5932025391522242
  0.5210706946290726  0.4717807318126341  0.5932025391522242
  0.8544040279624061  0.4717807318126341  0.5932025391522243
  0.1877373612957395  0.8051140651459674  0.5932025391522242
  0.5210706946290726  0.8051140651459675  0.5932025391522242
  0.8544040279624061  0.8051140651459676  0.5932025391522242
  0.1877373612957394  0.1384473984793008  0.9265358724855576
  0.5210706946290726  0.1384473984793008  0.9265358724855575
  0.8544040279624061  0.1384473984793009  0.9265358724855575
  0.1877373612957394  0.4717807318126340  0.9265358724855575
  0.5210706946290727  0.4717807318126341  0.9265358724855577
  0.8544040279624061  0.4717807318126342  0.9265358724855577
  0.1877373612957394  0.8051140651459674  0.9265358724855577
  0.5210706946290727  0.8051140651459675  0.9265358724855577
  0.8544040279624061  0.8051140651459676  0.9265358724855576
  0.2598692191454112  0.1877373643545835  0.1384474047015825
  0.5932025524787445  0.1877373643545836  0.1384474047015825
  0.9265358858120779  0.1877373643545837  0.1384474047015825
  0.2598692191454112  0.5210706976879168  0.1384474047015825
  0.5932025524787445  0.5210706976879169  0.1384474047015826
  0.9265358858120778  0.5210706976879169  0.1384474047015825
  0.2598692191454112  0.8544040310212501  0.1384474047015826
  0.5932025524787445  0.8544040310212502  0.1384474047015824
  0.9265358858120779  0.8544040310212502  0.1384474047015825
  0.2598692191454112  0.1877373643545835  0.4717807380349159
  0.5932025524787445  0.1877373643545836  0.4717807380349158
  0.9265358858120779  0.1877373643545838  0.4717807380349160
  0.2598692191454112  0.5210706976879168  0.4717807380349159
  0.5932025524787445  0.5210706976879169  0.4717807380349158
  0.9265358858120778  0.5210706976879168  0.4717807380349158
  0.2598692191454112  0.8544040310212501  0.4717807380349158
  0.5932025524787445  0.8544040310212502  0.4717807380349158
  0.9265358858120778  0.8544040310212502  0.4717807380349159
  0.2598692191454112  0.1877373643545835  0.8051140713682493
  0.5932025524787445  0.1877373643545835  0.8051140713682494
  0.9265358858120779  0.1877373643545838  0.8051140713682494
  0.2598692191454112  0.5210706976879167  0.8051140713682494
  0.5932025524787445  0.5210706976879169  0.8051140713682493
  0.9265358858120778  0.5210706976879168  0.8051140713682493
  0.2598692191454111  0.8544040310212500  0.8051140713682492
  0.5932025524787445  0.8544040310212501  0.8051140713682492
  0.9265358858120779  0.8544040310212501  0.8051140713682493
  0.0282192345270039  0.3122626434501568  0.2401308199804468
  0.3615525678603372  0.3122626434501569  0.2401308199804468
  0.6948859011936706  0.3122626434501570  0.2401308199804469
  0.0282192345270039  0.6455959767834902  0.2401308199804467
  0.3615525678603371  0.6455959767834901  0.2401308199804468
  0.6948859011936706  0.6455959767834902  0.2401308199804468
  0.0282192345270039  0.9789293101168234  0.2401308199804468
  0.3615525678603372  0.9789293101168235  0.2401308199804468
  0.6948859011936706  0.9789293101168236  0.2401308199804468
  0.0282192345270039  0.3122626434501569  0.5734641533137801
  0.3615525678603372  0.3122626434501569  0.5734641533137801
  0.6948859011936706  0.3122626434501570  0.5734641533137802
  0.0282192345270039  0.6455959767834902  0.5734641533137801
  0.3615525678603372  0.6455959767834902  0.5734641533137801
  0.6948859011936707  0.6455959767834902  0.5734641533137801
  0.0282192345270039  0.9789293101168235  0.5734641533137800
  0.3615525678603372  0.9789293101168235  0.5734641533137801
  0.6948859011936707  0.9789293101168236  0.5734641533137802
  0.0282192345270040  0.3122626434501568  0.9067974866471136
  0.3615525678603372  0.3122626434501568  0.9067974866471136
  0.6948859011936706  0.3122626434501570  0.9067974866471136
  0.0282192345270040  0.6455959767834901  0.9067974866471136
  0.3615525678603372  0.6455959767834902  0.9067974866471136
  0.6948859011936706  0.6455959767834902  0.9067974866471133
  0.0282192345270039  0.9789293101168235  0.9067974866471133
  0.3615525678603373  0.9789293101168235  0.9067974866471136
  0.6948859011936707  0.9789293101168235  0.9067974866471136
  0.2401308178389390  0.0282192294777164  0.3122626366711605
  0.5734641511722722  0.0282192294777164  0.3122626366711606
  0.9067974845056056  0.0282192294777165  0.3122626366711606
  0.2401308178389390  0.3615525628110497  0.3122626366711606
  0.5734641511722722  0.3615525628110497  0.3122626366711605
  0.9067974845056056  0.3615525628110499  0.3122626366711605
  0.2401308178389390  0.6948858961443829  0.3122626366711606
  0.5734641511722723  0.6948858961443831  0.3122626366711606
  0.9067974845056057  0.6948858961443831  0.3122626366711607
  0.2401308178389390  0.0282192294777164  0.6455959700044938
  0.5734641511722722  0.0282192294777164  0.6455959700044938
  0.9067974845056056  0.0282192294777165  0.6455959700044939
  0.2401308178389390  0.3615525628110496  0.6455959700044938
  0.5734641511722722  0.3615525628110496  0.6455959700044938
  0.9067974845056056  0.3615525628110497  0.6455959700044938
  0.2401308178389390  0.6948858961443829  0.6455959700044938
  0.5734641511722723  0.6948858961443829  0.6455959700044938
  0.9067974845056057  0.6948858961443831  0.6455959700044938
  0.2401308178389390  0.0282192294777163  0.9789293033378270
  0.5734641511722722  0.0282192294777164  0.9789293033378271
  0.9067974845056056  0.0282192294777165  0.9789293033378271
  0.2401308178389391  0.3615525628110496  0.9789293033378270
  0.5734641511722722  0.3615525628110496  0.9789293033378271
  0.9067974845056055  0.3615525628110497  0.9789293033378271
  0.2401308178389391  0.6948858961443829  0.9789293033378270
  0.5734641511722722  0.6948858961443829  0.9789293033378271
  0.9067974845056057  0.6948858961443831  0.9789293033378271
  0.3122626336764271  0.2401308137756939  0.0282192371130686
  0.6455959670097604  0.2401308137756940  0.0282192371130686
  0.9789293003430937  0.2401308137756940  0.0282192371130687
  0.3122626336764271  0.5734641471090272  0.0282192371130686
  0.6455959670097603  0.5734641471090272  0.0282192371130685
  0.9789293003430937  0.5734641471090274  0.0282192371130686
  0.3122626336764273  0.9067974804423604  0.0282192371130686
  0.6455959670097606  0.9067974804423605  0.0282192371130686
  0.9789293003430937  0.9067974804423605  0.0282192371130686
  0.3122626336764271  0.2401308137756938  0.3615525704464019
  0.6455959670097604  0.2401308137756939  0.3615525704464019
  0.9789293003430937  0.2401308137756940  0.3615525704464020
  0.3122626336764272  0.5734641471090272  0.3615525704464019
  0.6455959670097604  0.5734641471090273  0.3615525704464020
  0.9789293003430937  0.5734641471090273  0.3615525704464020
  0.3122626336764273  0.9067974804423604  0.3615525704464019
  0.6455959670097605  0.9067974804423605  0.3615525704464019
  0.9789293003430937  0.9067974804423604  0.3615525704464018
  0.3122626336764271  0.2401308137756938  0.6948859037797352
  0.6455959670097604  0.2401308137756938  0.6948859037797352
  0.9789293003430937  0.2401308137756940  0.6948859037797354
  0.3122626336764272  0.5734641471090270  0.6948859037797354
  0.6455959670097604  0.5734641471090273  0.6948859037797355
  0.9789293003430937  0.5734641471090273  0.6948859037797355
  0.3122626336764273  0.9067974804423603  0.6948859037797354
  0.6455959670097606  0.9067974804423605  0.6948859037797354
  0.9789293003430936  0.9067974804423603  0.6948859037797352
  0.1948858109789956  0.0734642466396738  0.1455959390351271